321 5
10 10 10 10 10 

0 0 0 0 0 0 3 2 14 46 
0 0 0 0 0 0 1 3 
9 0 0 0 0 1 2 5 4 
2 0 0 0 0 4 2 7 6 
10 0 0 0 0 5 2 7 6 
7 0 0 0 0 2 2 9 8 
10 0 0 0 0 7 1 8 
8 0 0 0 0 6 1 10 
2 0 0 0 0 8 1 10 
8 0 0 0 0 7 1 11 
3 0 0 0 0 4 1 12 
2 0 0 0 0 6 1 13 
0 0 0 0 0 0 2 78 100 
0 0 0 0 0 0 2 15 38 
8 1 0 0 1 1 1 16 
9 6 0 0 4 4 1 17 
7 5 0 0 6 4 1 18 
1 4 0 0 4 6 1 19 
3 6 0 0 8 6 2 28 20 
9 8 0 0 4 8 1 21 
5 4 0 0 6 4 1 22 
4 7 0 0 7 3 3 31 25 23 
9 4 0 0 4 8 2 27 24 
6 4 0 0 3 2 3 33 30 26 
9 5 0 0 2 4 2 33 29 
9 9 0 0 7 3 1 29 
8 1 0 0 9 3 1 29 
9 8 0 0 5 5 1 29 
6 4 0 0 6 2 1 32 
7 5 0 0 6 7 1 32 
7 6 0 0 4 5 1 33 
9 5 0 0 3 8 1 34 
10 5 0 0 6 6 1 34 
5 4 0 0 8 3 1 35 
6 5 0 0 5 7 2 44 36 
9 5 0 0 6 5 1 37 
6 4 0 0 6 6 1 39 
7 6 0 0 6 5 1 39 
6 9 0 0 5 10 1 40 
9 4 0 0 4 6 1 41 
2 4 0 0 2 3 1 42 
8 6 0 0 5 5 1 43 
3 3 0 0 5 6 1 45 
5 3 0 0 3 5 1 45 
0 0 0 0 0 0 1 160 
0 0 0 0 0 0 2 47 68 
8 0 1 1 1 0 1 48 
5 0 4 6 8 0 1 49 
5 0 6 4 3 0 1 50 
1 0 4 3 8 0 1 51 
1 0 5 4 5 0 2 60 52 
1 0 6 5 4 0 1 53 
10 0 4 6 2 0 1 54 
4 0 5 2 6 0 3 63 57 55 
5 0 3 6 9 0 2 59 56 
6 0 7 4 5 0 3 65 62 58 
8 0 6 7 3 0 2 65 61 
10 0 7 7 6 0 1 61 
7 0 7 6 6 0 1 61 
10 0 9 5 7 0 1 61 
1 0 7 7 4 0 1 64 
5 0 3 4 4 0 1 64 
6 0 4 3 7 0 1 65 
7 0 2 5 5 0 1 66 
2 0 7 7 3 0 1 66 
3 0 5 2 2 0 1 67 
3 0 7 7 4 0 2 75 69 
4 0 7 5 4 0 2 75 69 
10 0 3 6 7 0 1 70 
2 0 4 5 6 0 1 71 
3 0 3 7 1 0 1 72 
8 0 8 10 7 0 1 73 
7 0 1 2 3 0 1 74 
2 0 6 4 9 0 1 76 
1 0 3 4 5 0 1 76 
3 0 6 6 6 0 1 77 
0 0 0 0 0 0 1 160 
0 0 0 0 0 0 1 79 
2 0 4 0 1 0 2 88 80 
1 0 4 0 5 0 1 81 
10 0 2 0 6 0 2 90 82 
2 0 8 0 4 0 1 83 
8 0 5 0 4 0 2 91 84 
8 0 10 0 5 0 1 85 
9 0 4 0 3 0 1 86 
8 0 4 0 5 0 2 98 87 
7 0 3 0 6 0 1 89 
2 0 2 0 4 0 1 89 
2 0 5 0 6 0 2 97 92 
10 0 6 0 8 0 1 91 
6 0 5 0 5 0 2 98 94 
2 0 7 0 8 0 1 93 
2 0 6 0 6 0 1 94 
2 0 7 0 2 0 1 95 
2 0 5 0 5 0 1 96 
4 0 3 0 5 0 1 99 
6 0 5 0 5 0 1 99 
2 0 5 0 7 0 1 99 
0 0 0 0 0 0 1 160 
0 0 0 0 0 0 1 101 
6 0 0 0 1 0 2 103 102 
3 0 0 0 5 0 2 107 105 
7 0 0 0 3 0 2 107 104 
1 0 0 0 7 0 1 106 
10 0 0 0 6 0 1 106 
8 0 0 0 8 0 1 108 
5 0 0 0 8 0 1 108 
1 0 0 0 3 0 1 109 
5 0 0 0 5 0 1 110 
1 0 0 0 4 0 1 111 
0 0 0 0 0 0 4 112 124 136 148 
0 0 0 0 0 0 1 113 
2 0 1 0 0 0 2 115 114 
8 0 4 0 0 0 2 117 116 
9 0 5 0 0 0 1 116 
1 0 5 0 0 0 1 118 
6 0 5 0 0 0 1 118 
6 0 8 0 0 0 1 119 
10 0 4 0 0 0 1 120 
7 0 4 0 0 0 2 122 121 
10 0 7 0 0 0 1 123 
2 0 7 0 0 0 1 123 
0 0 0 0 0 0 1 160 
0 0 0 0 0 0 4 125 127 130 134 
4 0 0 1 0 0 1 126 
4 0 0 7 0 0 1 128 
10 0 0 8 0 0 1 128 
4 0 0 3 0 0 1 129 
8 0 0 9 0 0 1 131 
4 0 0 7 0 0 1 131 
1 0 0 5 0 0 1 132 
2 0 0 2 0 0 1 133 
7 0 0 5 0 0 1 135 
9 0 0 3 0 0 1 135 
0 0 0 0 0 0 1 160 
0 0 0 0 0 0 1 137 
3 0 0 1 0 0 2 142 138 
7 0 0 8 0 0 1 139 
10 0 0 7 0 0 1 140 
4 0 0 6 0 0 2 144 141 
6 0 0 6 0 0 2 145 143 
4 0 0 5 0 0 2 146 145 
3 0 0 4 0 0 1 146 
5 0 0 5 0 0 1 145 
10 0 0 1 0 0 1 147 
10 0 0 7 0 0 1 147 
0 0 0 0 0 0 1 160 
0 0 0 0 0 0 2 149 151 
3 0 0 0 0 1 1 150 
6 0 0 0 0 3 1 152 
7 0 0 0 0 4 1 152 
5 0 0 0 0 4 2 158 153 
1 0 0 0 0 5 2 157 154 
2 0 0 0 0 5 1 155 
1 0 0 0 0 7 1 156 
7 0 0 0 0 7 1 159 
7 0 0 0 0 7 1 159 
8 0 0 0 0 7 1 159 
0 0 0 0 0 0 1 160 
0 0 0 0 0 0 5 161 183 205 217 239 
0 0 0 0 0 0 2 162 168 
2 0 0 0 1 1 1 163 
2 0 0 0 8 4 1 164 
9 0 0 0 3 6 1 165 
1 0 0 0 4 6 2 170 166 
4 0 0 0 9 3 1 167 
2 0 0 0 2 7 2 178 169 
4 0 0 0 5 9 2 178 169 
9 0 0 0 6 2 1 171 
6 0 0 0 5 5 1 171 
3 0 0 0 5 6 2 176 172 
1 0 0 0 7 7 1 173 
7 0 0 0 4 2 2 181 174 
7 0 0 0 5 3 1 175 
9 0 0 0 6 7 1 177 
1 0 0 0 7 5 2 181 180 
7 0 0 0 6 8 1 179 
9 0 0 0 6 4 1 179 
2 0 0 0 4 6 1 180 
2 0 0 0 4 5 1 182 
8 0 0 0 3 4 1 182 
0 0 0 0 0 0 1 321 
0 0 0 0 0 0 3 184 187 188 
5 0 0 1 1 0 1 185 
1 0 0 8 2 0 1 186 
1 0 0 3 6 0 2 203 189 
4 0 0 5 2 0 2 203 189 
9 0 0 2 2 0 3 203 198 191 
2 0 0 9 4 0 2 198 190 
7 0 0 4 4 0 1 191 
1 0 0 7 7 0 1 192 
6 0 0 7 8 0 1 193 
1 0 0 4 5 0 1 194 
5 0 0 4 6 0 2 202 195 
1 0 0 6 2 0 1 196 
6 0 0 4 7 0 1 197 
9 0 0 4 5 0 1 199 
6 0 0 4 10 0 1 199 
8 0 0 5 5 0 1 200 
8 0 0 7 6 0 1 201 
3 0 0 4 8 0 1 204 
5 0 0 7 3 0 1 204 
2 0 0 5 7 0 1 204 
0 0 0 0 0 0 1 321 
0 0 0 0 0 0 2 206 211 
1 0 0 0 0 1 2 215 207 
1 0 0 0 0 6 1 208 
6 0 0 0 0 7 1 209 
7 0 0 0 0 7 1 210 
7 0 0 0 0 6 2 214 212 
9 0 0 0 0 3 2 214 212 
8 0 0 0 0 6 1 213 
6 0 0 0 0 3 1 216 
6 0 0 0 0 7 1 216 
6 0 0 0 0 4 1 216 
0 0 0 0 0 0 5 261 273 285 297 309 
0 0 0 0 0 0 2 218 221 
2 3 0 0 0 1 1 219 
10 1 0 0 0 2 2 228 220 
8 5 0 0 0 9 3 235 225 222 
9 7 0 0 0 2 3 235 225 222 
2 8 0 0 0 5 1 223 
3 3 0 0 0 8 1 224 
3 10 0 0 0 6 1 226 
5 5 0 0 0 10 1 226 
10 7 0 0 0 7 1 227 
2 8 0 0 0 7 1 229 
9 7 0 0 0 5 1 229 
8 2 0 0 0 2 1 230 
8 4 0 0 0 5 1 231 
10 5 0 0 0 5 2 237 232 
6 4 0 0 0 5 1 233 
10 8 0 0 0 7 1 234 
1 4 0 0 0 4 1 236 
9 4 0 0 0 2 1 236 
10 2 0 0 0 5 1 238 
4 3 0 0 0 3 1 238 
0 0 0 0 0 0 1 321 
0 0 0 0 0 0 3 240 248 249 
8 0 0 0 1 2 1 241 
8 0 0 0 5 5 1 242 
1 0 0 0 7 7 1 243 
2 0 0 0 8 4 1 244 
4 0 0 0 8 4 2 255 245 
10 0 0 0 7 3 1 246 
9 0 0 0 5 3 1 247 
4 0 0 0 2 7 2 259 250 
9 0 0 0 5 3 2 259 251 
5 0 0 0 4 5 2 256 252 
9 0 0 0 5 7 1 251 
2 0 0 0 4 5 1 252 
8 0 0 0 5 6 1 253 
6 0 0 0 3 3 1 254 
6 0 0 0 3 3 1 257 
3 0 0 0 7 5 1 257 
3 0 0 0 6 3 1 257 
3 0 0 0 5 7 1 258 
6 0 0 0 6 10 1 260 
5 0 0 0 4 8 1 260 
0 0 0 0 0 0 1 321 
0 0 0 0 0 0 1 262 
7 1 0 0 0 0 1 263 
8 3 0 0 0 0 2 271 264 
9 3 0 0 0 0 2 268 265 
5 6 0 0 0 0 2 270 266 
7 5 0 0 0 0 1 267 
10 6 0 0 0 0 1 269 
9 5 0 0 0 0 1 269 
10 7 0 0 0 0 1 272 
4 6 0 0 0 0 1 272 
3 8 0 0 0 0 1 272 
0 0 0 0 0 0 1 321 
0 0 0 0 0 0 2 274 275 
7 1 0 0 0 0 1 276 
5 2 0 0 0 0 1 276 
6 4 0 0 0 0 1 277 
4 5 0 0 0 0 2 279 278 
10 7 0 0 0 0 1 280 
8 8 0 0 0 0 1 280 
6 3 0 0 0 0 1 281 
8 10 0 0 0 0 2 283 282 
6 2 0 0 0 0 1 284 
3 8 0 0 0 0 1 284 
0 0 0 0 0 0 1 321 
0 0 0 0 0 0 2 286 289 
8 0 0 0 1 0 2 291 287 
1 0 0 0 6 0 1 288 
2 0 0 0 6 0 1 290 
4 0 0 0 6 0 1 291 
9 0 0 0 3 0 2 295 292 
5 0 0 0 10 0 2 295 292 
10 0 0 0 6 0 1 293 
9 0 0 0 4 0 1 294 
10 0 0 0 3 0 1 296 
6 0 0 0 5 0 1 296 
0 0 0 0 0 0 1 321 
0 0 0 0 0 0 2 298 300 
9 0 1 0 0 0 1 299 
1 0 5 0 0 0 2 302 301 
6 0 3 0 0 0 2 302 301 
8 0 8 0 0 0 1 303 
2 0 4 0 0 0 1 303 
7 0 6 0 0 0 2 305 304 
1 0 6 0 0 0 1 306 
8 0 5 0 0 0 1 306 
4 0 5 0 0 0 1 307 
10 0 7 0 0 0 1 308 
0 0 0 0 0 0 1 321 
0 0 0 0 0 0 2 310 311 
1 0 0 0 1 0 1 312 
7 0 0 0 4 0 1 312 
3 0 0 0 3 0 2 317 313 
10 0 0 0 6 0 1 314 
7 0 0 0 4 0 1 315 
4 0 0 0 7 0 1 316 
7 0 0 0 5 0 2 319 318 
2 0 0 0 5 0 2 319 318 
7 0 0 0 7 0 1 320 
8 0 0 0 8 0 1 320 
0 0 0 0 0 0 1 321 
0 0 0 0 0 0 0 
